'BPP0'
       2
       5
       1         2   
       2         1    
'BPP1'   
       9    
     100  
      91         1    
      88         1    
      65         1    
      55         1    
      47         1    
      41         1    
      19         1    
       5         1    
       2         2   
'BPP2'
      10
     100
      76         1
      71         1
      62         1
      61         1
      48         1
      42         1
      37         1
      30         1
      29         1
       1         1
